\ This file has been generated by DOcplex
\ ENCODING=ISO-8859-1
\Problem name: dectiger problem

Minimize
 obj: V
Subject To
 c1: V + 36.483593750000 a1_u0_x0 + 92.531250000000 a1_u1_x0
     + 37.531250000000 a1_u2_x0 + 34.172656250000 a1_u0_x1
     + 28.468750000000 a1_u1_x1 + 83.468750000000 a1_u2_x1 >= 0
 c2: V + 92.531250000000 a1_u0_x0 + 67.031250000000 a1_u1_x0
     + 92.031250000000 a1_u2_x0 + 28.468750000000 a1_u0_x1
     + 22.968750000000 a1_u1_x1 + 82.968750000000 a1_u2_x1 >= 0
 c3: V + 37.531250000000 a1_u0_x0 + 92.031250000000 a1_u1_x0
     + 32.031250000000 a1_u2_x0 + 83.468750000000 a1_u0_x1
     + 82.968750000000 a1_u1_x1 + 57.968750000000 a1_u2_x1 >= 0
 c4: a1_u0_x0 + a1_u1_x0 + a1_u2_x0 = 1
 c5: a1_u0_x1 + a1_u1_x1 + a1_u2_x1 = 1

Bounds
       V Free
End
